
Clique cuts applied:  12
Cover cuts applied:  87
Flow cuts applied:  4
Mixed integer rounding cuts applied:  30
Zero-half cuts applied:  161
Lift and project cuts applied:  1
Gomory fractional cuts applied:  2

Root node processing (before b&c):
  Real time             =    3.38 sec. (2589.38 ticks)
Parallel b&c, 4 threads:
  Real time             =    8.72 sec. (6380.62 ticks)
  Sync time (average)   =    0.86 sec.
  Wait time (average)   =    0.00 sec.
                          ------------
Total (root+branch&cut) =   12.10 sec. (8970.00 ticks)
Version identifier: 12.10.0.0 | 2019-11-26 | 843d4de
CPXPARAM_MIP_Interval                            10
CPXPARAM_MIP_Tolerances_AbsMIPGap                0.98999999999999999
Tried aggregator 2 times.
MIP Presolve eliminated 14249 rows and 14281 columns.
MIP Presolve modified 1 coefficients.
Aggregator did 67 substitutions.
Reduced MIP has 2509 rows, 1927 columns, and 7726 nonzeros.
Reduced MIP has 1927 binaries, 0 generals, 0 SOSs, and 0 indicators.
Presolve time = 0.03 sec. (21.83 ticks)
Probing fixed 27 vars, tightened 0 bounds.
Probing changed sense of 58 constraints.
Probing time = 0.01 sec. (9.31 ticks)
Tried aggregator 2 times.
MIP Presolve eliminated 301 rows and 224 columns.
Aggregator did 38 substitutions.
Reduced MIP has 2170 rows, 1665 columns, and 6657 nonzeros.
Reduced MIP has 1665 binaries, 0 generals, 0 SOSs, and 0 indicators.
Presolve time = 0.01 sec. (8.58 ticks)
Probing time = 0.00 sec. (4.41 ticks)
Tried aggregator 2 times.
Detecting symmetries...
MIP Presolve eliminated 99 rows and 80 columns.
Aggregator did 4 substitutions.
Reduced MIP has 2067 rows, 1581 columns, and 6333 nonzeros.
Reduced MIP has 1581 binaries, 0 generals, 0 SOSs, and 0 indicators.
Presolve time = 0.02 sec. (9.39 ticks)
Probing time = 0.01 sec. (2.55 ticks)
Clique table members: 1554.
MIP emphasis: balance optimality and feasibility.
MIP search method: dynamic search.
Parallel mode: deterministic, using up to 4 threads.
Root relaxation solution time = 0.02 sec. (18.78 ticks)

        Nodes                                         Cuts/
   Node  Left     Objective  IInf  Best Integer    Best Bound    ItCnt     Gap

      0     0       15.6667   308                     15.6667      467         
      0     0       15.6667   308                    Cuts: 27      684         
      0     0       15.6667   308                   Cuts: 150     1052         
*     0+    0                           13.0000       15.6667            20.51%
      0     0       15.4286   308       13.0000      Cuts: 39     1198   18.68%
      0     0       15.4286   308       13.0000     Cuts: 134     1349   18.68%
Detecting symmetries...
      0     2       15.4286   283       13.0000       15.4286     1349   18.68%
Elapsed time = 0.55 sec. (371.29 ticks, tree = 0.02 MB, solutions = 1)
     10     5       15.0000   203       13.0000       15.4286     1620   18.68%
*    19    14      integral     0       14.0000       15.4286     2667   10.20%
     20    15       15.0000   327       14.0000       15.4286     2557   10.20%
     30     5       15.0000   337       14.0000       15.4286     3698   10.20%
the number of Nodes = 33
